n_users = 16;
size = 5;
weight = [5,3,1,1,1,2,2,1,4,4,3,1,1,2,2,1];
tolerance = 10;
use_balance = 1;

preferred = [|2,2
             |1,1
             |-2,-2
             |-2,-1
             |5,3
             |4,1
             |4,2
             |1,5
             |2,2
             |1,1
             |-2,-2
             |-2,-1
             |5,5
             |4,3
             |-1,2
             |1,5
             |]